! PBE UKS ZORA TightSCF ESD(ABS) MORead

%moinp "eu_freq.gbw"

%pal nprocs 8 end
%maxcore 7000

%basis
  newgto Eu "SARC-ZORA-TZVP" end
  newgto O  "ZORA-def2-TZVP" end
  newgto N  "ZORA-def2-TZVP" end
  newgto C  "ZORA-def2-TZVP" end
  newgto H  "ZORA-def2-SVP"  end
end

* xyzfile 0 7 eu_freq.xyz  # Use the optimized geometry file

%eprnmr
  gtensor true
  dtensor ssandso
  dss uno
  dsoc cp
  nuclei = all Eu { fgrad, AISO, ADIP, AORB }
end

%tddft
  nroots 30
end

%esd
  GSHessian "eu_freq.hess"
  HessFlag VG
  PrintLevel 3
  States 21,22,23,24,25,26,27,28,29,30
end
