! PBE UKS ZORA TightSCF Freq Opt

%pal nprocs 8 end  # ← Use more cores if available, Freq is parallelizable
%maxcore 7000

%basis
  newgto Eu "SARC-ZORA-TZVP" end
  newgto O  "ZORA-def2-TZVP" end
  newgto N  "ZORA-def2-TZVP" end
  newgto C  "ZORA-def2-TZVP" end
  newgto H  "ZORA-def2-SVP"  end
end

* xyz 0 7
Eu         9.31801        7.81050        9.76860
O         10.06389        8.34590       12.09962
O          9.51794        5.95367        8.21138
O         11.76350        7.94727        9.52027
O          7.58411        6.93403        8.22922
O         11.11104        6.15579       10.51222
O         10.15754       10.04316       10.77701
O         13.22717        6.48516       10.19392
O         10.72612       10.27177       12.86244
N          7.97805        9.93075        9.10867
N          7.16564        8.32304       11.09806
N          7.19618        6.17142       11.92126
N         10.33661        9.58003       11.93360
O          8.04019        5.45482        6.69121
N          9.25058       10.11726        7.20983
N          8.35521        6.09430        7.67768
N         12.07890        6.84708       10.07592
N          9.76338        8.89008        7.50481
N          8.29199        5.93747       11.13373
C          6.62512        9.56650       11.03906
C          7.09160       10.44202       10.00870
C          6.56765       11.75062        9.91814
C          5.61309        9.99694       11.92400
C          5.13438        9.05694       12.86382
H          4.46320        9.30798       13.48789
C          6.65635        7.46212       11.95281
C         10.49166        9.59421        5.48523
H         10.94367        9.60653        4.65013
C          5.13342       11.35260       11.82247
H          4.48017       11.66505       12.43662
C          5.59776       12.18296       10.86894
H          5.27265       13.07523       10.83036
C          8.35028       10.72669        8.11534
C          9.68597       10.55983        5.99973
H          9.46853       11.38956        5.59148
C          7.02918       12.55224        8.85073
H          6.73587       13.45239        8.77342
C         10.51551        8.56703        6.45523
H         11.00235        7.75544        6.37007
C          7.89798       12.03627        7.92464
H          8.18338       12.55039        7.17882
C          5.63668        7.78689       12.87616
H          5.30939        7.13911       13.48895
C          6.74336        5.02632       12.49475
H          5.99180        4.94288       13.06942
C          8.51731        4.63069       11.25447
H          9.22917        4.16818       10.82831
C          7.56691        4.02174       12.09138
H          7.51114        3.10259       12.32664
*
